;; translated from ./ctigar/gulwani_cegar2.c.vmt
;; original benchmark available at: https://es-static.fbk.eu/people/griggio/ic3ia/index.html
;; author: Alberto Griggio <griggio@fbk.eu>
(set-logic HORN)
(declare-fun state (Bool Bool Bool Bool Bool Int Int Int) Bool)
(assert (forall ((|.s.2| Bool) (|.s.0| Bool) (|.s.1| Bool) (|.s.4.next| Bool) (|.s.0.next| Bool) (|.s.1.next| Bool) (|.s.2.next| Bool) (|.s.3.next| Bool) (|main.x.next| Int) (|main.x| Int) (|main.m.next| Int) (|main.m| Int) (|main.n.next| Int) (|main.n| Int) (|.inputVar.0| Int) (|.s.4| Bool) (|.s.3| Bool)) (=> (let ((.def_20 (not .s.4)))
(let ((.def_17 (not .s.3)))
(let ((.def_14 (not .s.2)))
(let ((.def_10 (not .s.1)))
(let ((.def_12 (and .def_10 .s.0)))
(let ((.def_15 (and .def_12 .def_14)))
(let ((.def_18 (and .def_15 .def_17)))
(let ((.def_21 (and .def_18 .def_20)))
.def_21)))))))) (state |.s.1| |.s.0| |.s.2| |.s.3| |.s.4| |main.x| |main.m| |main.n|))))
(assert (forall ((|.s.2| Bool) (|.s.0| Bool) (|.s.1| Bool) (|.s.4.next| Bool) (|.s.0.next| Bool) (|.s.1.next| Bool) (|.s.2.next| Bool) (|.s.3.next| Bool) (|main.x.next| Int) (|main.x| Int) (|main.m.next| Int) (|main.m| Int) (|main.n.next| Int) (|main.n| Int) (|.inputVar.0| Int) (|.s.4| Bool) (|.s.3| Bool)) (=> (and (state |.s.1| |.s.0| |.s.2| |.s.3| |.s.4| |main.x| |main.m| |main.n|) (let ((.def_49 (not .s.0)))
(let ((.def_10 (not .s.1)))
(let ((.def_50 (and .def_10 .def_49)))
(let ((.def_14 (not .s.2)))
(let ((.def_51 (and .def_14 .def_50)))
(let ((.def_17 (not .s.3)))
(let ((.def_52 (and .def_17 .def_51)))
(let ((.def_20 (not .s.4)))
(let ((.def_256 (and .def_20 .def_52)))
(let ((.def_257 (not .def_256)))
(let ((.def_69 (not .s.4.next)))
(let ((.def_55 (not .s.0.next)))
(let ((.def_25 (not .s.1.next)))
(let ((.def_56 (and .def_25 .def_55)))
(let ((.def_29 (not .s.2.next)))
(let ((.def_57 (and .def_29 .def_56)))
(let ((.def_32 (not .s.3.next)))
(let ((.def_58 (and .def_32 .def_57)))
(let ((.def_70 (and .def_58 .def_69)))
(let ((.def_38 (= main.x main.x.next)))
(let ((.def_71 (and .def_38 .def_70)))
(let ((.def_42 (= main.m main.m.next)))
(let ((.def_72 (and .def_42 .def_71)))
(let ((.def_46 (= main.n main.n.next)))
(let ((.def_73 (and .def_46 .def_72)))
(let ((.def_258 (or .def_73 .def_257)))
(let ((.def_92 (and .s.1.next .def_55)))
(let ((.def_152 (and .def_29 .def_92)))
(let ((.def_250 (and .def_32 .def_152)))
(let ((.def_251 (and .def_69 .def_250)))
(let ((.def_249 (= main.x.next 0)))
(let ((.def_252 (and .def_249 .def_251)))
(let ((.def_253 (and .def_42 .def_252)))
(let ((.def_254 (and .def_46 .def_253)))
(let ((.def_12 (and .def_10 .s.0)))
(let ((.def_15 (and .def_12 .def_14)))
(let ((.def_18 (and .def_15 .def_17)))
(let ((.def_21 (and .def_18 .def_20)))
(let ((.def_248 (not .def_21)))
(let ((.def_255 (or .def_248 .def_254)))
(let ((.def_259 (and .def_255 .def_258)))
(let ((.def_243 (= main.m.next 0)))
(let ((.def_80 (and .s.1.next .s.0.next)))
(let ((.def_135 (and .def_29 .def_80)))
(let ((.def_165 (and .def_32 .def_135)))
(let ((.def_166 (and .def_69 .def_165)))
(let ((.def_244 (and .def_166 .def_243)))
(let ((.def_245 (and .def_38 .def_244)))
(let ((.def_246 (and .def_46 .def_245)))
(let ((.def_75 (and .s.1 .def_49)))
(let ((.def_128 (and .def_14 .def_75)))
(let ((.def_240 (and .def_17 .def_128)))
(let ((.def_241 (and .def_20 .def_240)))
(let ((.def_242 (not .def_241)))
(let ((.def_247 (or .def_242 .def_246)))
(let ((.def_260 (and .def_247 .def_259)))
(let ((.def_27 (and .def_25 .s.0.next)))
(let ((.def_30 (and .def_27 .def_29)))
(let ((.def_234 (and .def_30 .s.3.next)))
(let ((.def_235 (and .def_69 .def_234)))
(let ((.def_236 (and .def_38 .def_235)))
(let ((.def_237 (and .def_42 .def_236)))
(let ((.def_238 (and .def_46 .def_237)))
(let ((.def_222 (<= main.n main.x)))
(let ((.def_64 (and .s.1 .s.0)))
(let ((.def_117 (and .def_14 .def_64)))
(let ((.def_220 (and .def_17 .def_117)))
(let ((.def_221 (and .def_20 .def_220)))
(let ((.def_232 (and .def_221 .def_222)))
(let ((.def_233 (not .def_232)))
(let ((.def_239 (or .def_233 .def_238)))
(let ((.def_261 (and .def_239 .def_260)))
(let ((.def_121 (and .s.2.next .def_56)))
(let ((.def_226 (and .def_32 .def_121)))
(let ((.def_227 (and .def_69 .def_226)))
(let ((.def_228 (and .def_38 .def_227)))
(let ((.def_229 (and .def_42 .def_228)))
(let ((.def_230 (and .def_46 .def_229)))
(let ((.def_223 (not .def_222)))
(let ((.def_224 (and .def_221 .def_223)))
(let ((.def_225 (not .def_224)))
(let ((.def_231 (or .def_225 .def_230)))
(let ((.def_262 (and .def_231 .def_261)))
(let ((.def_207 (= .inputVar.0 0)))
(let ((.def_216 (not .def_207)))
(let ((.def_100 (and .s.2 .def_50)))
(let ((.def_204 (and .def_17 .def_100)))
(let ((.def_205 (and .def_20 .def_204)))
(let ((.def_217 (and .def_205 .def_216)))
(let ((.def_218 (not .def_217)))
(let ((.def_81 (and .s.2.next .def_80)))
(let ((.def_188 (and .def_32 .def_81)))
(let ((.def_189 (and .def_69 .def_188)))
(let ((.def_190 (and .def_38 .def_189)))
(let ((.def_191 (and .def_42 .def_190)))
(let ((.def_192 (and .def_46 .def_191)))
(let ((.def_219 (or .def_192 .def_218)))
(let ((.def_263 (and .def_219 .def_262)))
(let ((.def_107 (and .def_27 .s.2.next)))
(let ((.def_210 (and .def_32 .def_107)))
(let ((.def_211 (and .def_69 .def_210)))
(let ((.def_212 (and .def_38 .def_211)))
(let ((.def_213 (and .def_42 .def_212)))
(let ((.def_214 (and .def_46 .def_213)))
(let ((.def_208 (and .def_205 .def_207)))
(let ((.def_209 (not .def_208)))
(let ((.def_215 (or .def_209 .def_214)))
(let ((.def_264 (and .def_215 .def_263)))
(let ((.def_93 (and .s.2.next .def_92)))
(let ((.def_198 (and .def_32 .def_93)))
(let ((.def_199 (and .def_69 .def_198)))
(let ((.def_197 (= main.x main.m.next)))
(let ((.def_200 (and .def_197 .def_199)))
(let ((.def_201 (and .def_38 .def_200)))
(let ((.def_202 (and .def_46 .def_201)))
(let ((.def_88 (and .def_12 .s.2)))
(let ((.def_194 (and .def_17 .def_88)))
(let ((.def_195 (and .def_20 .def_194)))
(let ((.def_196 (not .def_195)))
(let ((.def_203 (or .def_196 .def_202)))
(let ((.def_265 (and .def_203 .def_264)))
(let ((.def_76 (and .s.2 .def_75)))
(let ((.def_185 (and .def_17 .def_76)))
(let ((.def_186 (and .def_20 .def_185)))
(let ((.def_187 (not .def_186)))
(let ((.def_193 (or .def_187 .def_192)))
(let ((.def_266 (and .def_193 .def_265)))
(let ((.def_179 (and .s.3.next .def_57)))
(let ((.def_180 (and .def_69 .def_179)))
(let ((.def_176 (* (- 1) main.x.next)))
(let ((.def_177 (+ main.x .def_176)))
(let ((.def_178 (= .def_177 (- 1))))
(let ((.def_181 (and .def_178 .def_180)))
(let ((.def_182 (and .def_42 .def_181)))
(let ((.def_183 (and .def_46 .def_182)))
(let ((.def_65 (and .s.2 .def_64)))
(let ((.def_171 (and .def_17 .def_65)))
(let ((.def_172 (and .def_20 .def_171)))
(let ((.def_173 (not .def_172)))
(let ((.def_184 (or .def_173 .def_183)))
(let ((.def_267 (and .def_184 .def_266)))
(let ((.def_167 (and .def_38 .def_166)))
(let ((.def_168 (and .def_42 .def_167)))
(let ((.def_169 (and .def_46 .def_168)))
(let ((.def_162 (and .s.3 .def_51)))
(let ((.def_163 (and .def_20 .def_162)))
(let ((.def_164 (not .def_163)))
(let ((.def_170 (or .def_164 .def_169)))
(let ((.def_268 (and .def_170 .def_267)))
(let ((.def_148 (<= main.n 0)))
(let ((.def_146 (and .def_15 .s.3)))
(let ((.def_147 (and .def_20 .def_146)))
(let ((.def_159 (and .def_147 .def_148)))
(let ((.def_160 (not .def_159)))
(let ((.def_82 (and .s.3.next .def_81)))
(let ((.def_83 (and .def_69 .def_82)))
(let ((.def_84 (and .def_38 .def_83)))
(let ((.def_85 (and .def_42 .def_84)))
(let ((.def_86 (and .def_46 .def_85)))
(let ((.def_161 (or .def_86 .def_160)))
(let ((.def_269 (and .def_161 .def_268)))
(let ((.def_153 (and .s.3.next .def_152)))
(let ((.def_154 (and .def_69 .def_153)))
(let ((.def_155 (and .def_38 .def_154)))
(let ((.def_156 (and .def_42 .def_155)))
(let ((.def_157 (and .def_46 .def_156)))
(let ((.def_149 (not .def_148)))
(let ((.def_150 (and .def_147 .def_149)))
(let ((.def_151 (not .def_150)))
(let ((.def_158 (or .def_151 .def_157)))
(let ((.def_270 (and .def_158 .def_269)))
(let ((.def_132 (<= 0 main.m)))
(let ((.def_142 (not .def_132)))
(let ((.def_129 (and .s.3 .def_128)))
(let ((.def_130 (and .def_20 .def_129)))
(let ((.def_143 (and .def_130 .def_142)))
(let ((.def_144 (not .def_143)))
(let ((.def_33 (and .def_30 .def_32)))
(let ((.def_35 (and .def_33 .s.4.next)))
(let ((.def_39 (and .def_35 .def_38)))
(let ((.def_43 (and .def_39 .def_42)))
(let ((.def_47 (and .def_43 .def_46)))
(let ((.def_145 (or .def_47 .def_144)))
(let ((.def_271 (and .def_145 .def_270)))
(let ((.def_136 (and .s.3.next .def_135)))
(let ((.def_137 (and .def_69 .def_136)))
(let ((.def_138 (and .def_38 .def_137)))
(let ((.def_139 (and .def_42 .def_138)))
(let ((.def_140 (and .def_46 .def_139)))
(let ((.def_133 (and .def_130 .def_132)))
(let ((.def_134 (not .def_133)))
(let ((.def_141 (or .def_134 .def_140)))
(let ((.def_272 (and .def_141 .def_271)))
(let ((.def_122 (and .s.3.next .def_121)))
(let ((.def_123 (and .def_69 .def_122)))
(let ((.def_124 (and .def_38 .def_123)))
(let ((.def_125 (and .def_42 .def_124)))
(let ((.def_126 (and .def_46 .def_125)))
(let ((.def_118 (and .s.3 .def_117)))
(let ((.def_119 (and .def_20 .def_118)))
(let ((.def_120 (not .def_119)))
(let ((.def_127 (or .def_120 .def_126)))
(let ((.def_273 (and .def_127 .def_272)))
(let ((.def_103 (<= main.n main.m)))
(let ((.def_101 (and .s.3 .def_100)))
(let ((.def_102 (and .def_20 .def_101)))
(let ((.def_114 (and .def_102 .def_103)))
(let ((.def_115 (not .def_114)))
(let ((.def_59 (and .s.4.next .def_58)))
(let ((.def_60 (and .def_38 .def_59)))
(let ((.def_61 (and .def_42 .def_60)))
(let ((.def_62 (and .def_46 .def_61)))
(let ((.def_116 (or .def_62 .def_115)))
(let ((.def_274 (and .def_116 .def_273)))
(let ((.def_108 (and .s.3.next .def_107)))
(let ((.def_109 (and .def_69 .def_108)))
(let ((.def_110 (and .def_38 .def_109)))
(let ((.def_111 (and .def_42 .def_110)))
(let ((.def_112 (and .def_46 .def_111)))
(let ((.def_104 (not .def_103)))
(let ((.def_105 (and .def_102 .def_104)))
(let ((.def_106 (not .def_105)))
(let ((.def_113 (or .def_106 .def_112)))
(let ((.def_275 (and .def_113 .def_274)))
(let ((.def_94 (and .s.3.next .def_93)))
(let ((.def_95 (and .def_69 .def_94)))
(let ((.def_96 (and .def_38 .def_95)))
(let ((.def_97 (and .def_42 .def_96)))
(let ((.def_98 (and .def_46 .def_97)))
(let ((.def_89 (and .s.3 .def_88)))
(let ((.def_90 (and .def_20 .def_89)))
(let ((.def_91 (not .def_90)))
(let ((.def_99 (or .def_91 .def_98)))
(let ((.def_276 (and .def_99 .def_275)))
(let ((.def_77 (and .s.3 .def_76)))
(let ((.def_78 (and .def_20 .def_77)))
(let ((.def_79 (not .def_78)))
(let ((.def_87 (or .def_79 .def_86)))
(let ((.def_277 (and .def_87 .def_276)))
(let ((.def_66 (and .s.3 .def_65)))
(let ((.def_67 (and .def_20 .def_66)))
(let ((.def_68 (not .def_67)))
(let ((.def_74 (or .def_68 .def_73)))
(let ((.def_278 (and .def_74 .def_277)))
(let ((.def_53 (and .s.4 .def_52)))
(let ((.def_54 (not .def_53)))
(let ((.def_63 (or .def_54 .def_62)))
(let ((.def_279 (and .def_63 .def_278)))
(let ((.def_22 (and .def_18 .s.4)))
(let ((.def_23 (not .def_22)))
(let ((.def_48 (or .def_23 .def_47)))
(let ((.def_280 (and .def_48 .def_279)))
.def_280))))))))))))))))))))))))))))))))))))))))))))))))))))))))))))))))))))))))))))))))))))))))))))))))))))))))))))))))))))))))))))))))))))))))))))))))))))))))))))))))))))))))))))))))))))))))))))))))))))))))))))))))))))))))))))))))))))))))))))))))))))))))))))) (state |.s.1.next| |.s.0.next| |.s.2.next| |.s.3.next| |.s.4.next| |main.x.next| |main.m.next| |main.n.next|))))
(assert (forall ((|.s.2| Bool) (|.s.0| Bool) (|.s.1| Bool) (|.s.4.next| Bool) (|.s.0.next| Bool) (|.s.1.next| Bool) (|.s.2.next| Bool) (|.s.3.next| Bool) (|main.x.next| Int) (|main.x| Int) (|main.m.next| Int) (|main.m| Int) (|main.n.next| Int) (|main.n| Int) (|.inputVar.0| Int) (|.s.4| Bool) (|.s.3| Bool)) (=> (state |.s.1| |.s.0| |.s.2| |.s.3| |.s.4| |main.x| |main.m| |main.n|) (let ((.def_49 (not .s.0)))
(let ((.def_10 (not .s.1)))
(let ((.def_50 (and .def_10 .def_49)))
(let ((.def_14 (not .s.2)))
(let ((.def_51 (and .def_14 .def_50)))
(let ((.def_17 (not .s.3)))
(let ((.def_52 (and .def_17 .def_51)))
(let ((.def_53 (and .s.4 .def_52)))
(let ((.def_54 (not .def_53)))
(let ((.def_12 (and .def_10 .s.0)))
(let ((.def_15 (and .def_12 .def_14)))
(let ((.def_18 (and .def_15 .def_17)))
(let ((.def_22 (and .def_18 .s.4)))
(let ((.def_23 (not .def_22)))
(let ((.def_281 (and .def_23 .def_54)))
.def_281))))))))))))))))))
(check-sat)
